NAME : RWPToy-3-1
COMMENT : Toy. 5 postmen. Max route 31304=21599.76s=6h.
TYPE : TSP
DIMENSION : 4
VEHICLES : 5
SCALE : 100000
DISTANCE : 21599.760000
EDGE_WEIGHT_TYPE : EXPLICIT
EDGE_WEIGHT_FORMAT : UPPER_ROW
EDGE_WEIGHT_SECTION
652.924704
925.938045
2263.843414

1025.132244
2860.805615

2884.752641

DEPOT_SECTION
1
-1
EOF
